T = 150;
V = 20;
Q = 15;
L = 5;
C = 3;
P = 20;
time = [|  0, 20, 13, 15, 15,  0,  5, 15, 20, 15,  5,  5,  5, 15,  5,  5,  0, 13,  0,  5,  5, 15, 15, 20, 20, 15, 15, 13,  5,  5, 15, 15, 15,  5, 13, 15,  5,  5,  5,  0, 11, 11, 11, 11, 11, 11, 11, 11, 11, 11, 11, 11, 11, 11, 11, 11, 11, 11, 11, 11, 11, 11, 11, 11, 11, 11, 11, 11, 11, 11, 11, 11, 11, 11, 11, 11, 11, 11, 11, 11,
        | 20,  0, 17,  6,  6, 20, 20,  6,  0,  6, 20, 20, 20,  6, 20, 20, 20, 17, 20, 20, 20,  6,  6,  0,  0,  6,  6, 17, 20, 20,  6,  6,  6, 20, 17,  6, 20, 20, 20, 20, 10, 10, 10, 10, 10, 10, 10, 10, 10, 10, 10, 10, 10, 10, 10, 10, 10, 10, 10, 10, 10, 10, 10, 10, 10, 10, 10, 10, 10, 10, 10, 10, 10, 10, 10, 10, 10, 10, 10, 10,
        | 13, 17,  0, 15, 15, 13, 17, 15, 17, 15, 17, 17, 17, 15, 17, 17, 13,  0, 13, 17, 17, 15, 15, 17, 17, 15, 15,  0, 17, 17, 15, 15, 15, 17,  0, 15, 17, 17, 17, 13, 10, 10, 10, 10, 10, 10, 10, 10, 10, 10, 10, 10, 10, 10, 10, 10, 10, 10, 10, 10, 10, 10, 10, 10, 10, 10, 10, 10, 10, 10, 10, 10, 10, 10, 10, 10, 10, 10, 10, 10,
        | 15,  6, 15,  0,  0, 15, 15,  0,  6,  0, 15, 15, 15,  0, 15, 15, 15, 15, 15, 15, 15,  0,  0,  6,  6,  0,  0, 15, 15, 15,  0,  0,  0, 15, 15,  0, 15, 15, 15, 15,  6,  6,  6,  6,  6,  6,  6,  6,  6,  6,  6,  6,  6,  6,  6,  6,  6,  6,  6,  6,  6,  6,  6,  6,  6,  6,  6,  6,  6,  6,  6,  6,  6,  6,  6,  6,  6,  6,  6,  6,
        | 15,  6, 15,  0,  0, 15, 15,  0,  6,  0, 15, 15, 15,  0, 15, 15, 15, 15, 15, 15, 15,  0,  0,  6,  6,  0,  0, 15, 15, 15,  0,  0,  0, 15, 15,  0, 15, 15, 15, 15,  6,  6,  6,  6,  6,  6,  6,  6,  6,  6,  6,  6,  6,  6,  6,  6,  6,  6,  6,  6,  6,  6,  6,  6,  6,  6,  6,  6,  6,  6,  6,  6,  6,  6,  6,  6,  6,  6,  6,  6,
        |  0, 20, 13, 15, 15,  0,  5, 15, 20, 15,  5,  5,  5, 15,  5,  5,  0, 13,  0,  5,  5, 15, 15, 20, 20, 15, 15, 13,  5,  5, 15, 15, 15,  5, 13, 15,  5,  5,  5,  0, 11, 11, 11, 11, 11, 11, 11, 11, 11, 11, 11, 11, 11, 11, 11, 11, 11, 11, 11, 11, 11, 11, 11, 11, 11, 11, 11, 11, 11, 11, 11, 11, 11, 11, 11, 11, 11, 11, 11, 11,
        |  5, 20, 17, 15, 15,  5,  0, 15, 20, 15,  0,  0,  0, 15,  0,  0,  5, 17,  5,  0,  0, 15, 15, 20, 20, 15, 15, 17,  0,  0, 15, 15, 15,  0, 17, 15,  0,  0,  0,  5, 13, 13, 13, 13, 13, 13, 13, 13, 13, 13, 13, 13, 13, 13, 13, 13, 13, 13, 13, 13, 13, 13, 13, 13, 13, 13, 13, 13, 13, 13, 13, 13, 13, 13, 13, 13, 13, 13, 13, 13,
        | 15,  6, 15,  0,  0, 15, 15,  0,  6,  0, 15, 15, 15,  0, 15, 15, 15, 15, 15, 15, 15,  0,  0,  6,  6,  0,  0, 15, 15, 15,  0,  0,  0, 15, 15,  0, 15, 15, 15, 15,  6,  6,  6,  6,  6,  6,  6,  6,  6,  6,  6,  6,  6,  6,  6,  6,  6,  6,  6,  6,  6,  6,  6,  6,  6,  6,  6,  6,  6,  6,  6,  6,  6,  6,  6,  6,  6,  6,  6,  6,
        | 20,  0, 17,  6,  6, 20, 20,  6,  0,  6, 20, 20, 20,  6, 20, 20, 20, 17, 20, 20, 20,  6,  6,  0,  0,  6,  6, 17, 20, 20,  6,  6,  6, 20, 17,  6, 20, 20, 20, 20, 10, 10, 10, 10, 10, 10, 10, 10, 10, 10, 10, 10, 10, 10, 10, 10, 10, 10, 10, 10, 10, 10, 10, 10, 10, 10, 10, 10, 10, 10, 10, 10, 10, 10, 10, 10, 10, 10, 10, 10,
        | 15,  6, 15,  0,  0, 15, 15,  0,  6,  0, 15, 15, 15,  0, 15, 15, 15, 15, 15, 15, 15,  0,  0,  6,  6,  0,  0, 15, 15, 15,  0,  0,  0, 15, 15,  0, 15, 15, 15, 15,  6,  6,  6,  6,  6,  6,  6,  6,  6,  6,  6,  6,  6,  6,  6,  6,  6,  6,  6,  6,  6,  6,  6,  6,  6,  6,  6,  6,  6,  6,  6,  6,  6,  6,  6,  6,  6,  6,  6,  6,
        |  5, 20, 17, 15, 15,  5,  0, 15, 20, 15,  0,  0,  0, 15,  0,  0,  5, 17,  5,  0,  0, 15, 15, 20, 20, 15, 15, 17,  0,  0, 15, 15, 15,  0, 17, 15,  0,  0,  0,  5, 13, 13, 13, 13, 13, 13, 13, 13, 13, 13, 13, 13, 13, 13, 13, 13, 13, 13, 13, 13, 13, 13, 13, 13, 13, 13, 13, 13, 13, 13, 13, 13, 13, 13, 13, 13, 13, 13, 13, 13,
        |  5, 20, 17, 15, 15,  5,  0, 15, 20, 15,  0,  0,  0, 15,  0,  0,  5, 17,  5,  0,  0, 15, 15, 20, 20, 15, 15, 17,  0,  0, 15, 15, 15,  0, 17, 15,  0,  0,  0,  5, 13, 13, 13, 13, 13, 13, 13, 13, 13, 13, 13, 13, 13, 13, 13, 13, 13, 13, 13, 13, 13, 13, 13, 13, 13, 13, 13, 13, 13, 13, 13, 13, 13, 13, 13, 13, 13, 13, 13, 13,
        |  5, 20, 17, 15, 15,  5,  0, 15, 20, 15,  0,  0,  0, 15,  0,  0,  5, 17,  5,  0,  0, 15, 15, 20, 20, 15, 15, 17,  0,  0, 15, 15, 15,  0, 17, 15,  0,  0,  0,  5, 13, 13, 13, 13, 13, 13, 13, 13, 13, 13, 13, 13, 13, 13, 13, 13, 13, 13, 13, 13, 13, 13, 13, 13, 13, 13, 13, 13, 13, 13, 13, 13, 13, 13, 13, 13, 13, 13, 13, 13,
        | 15,  6, 15,  0,  0, 15, 15,  0,  6,  0, 15, 15, 15,  0, 15, 15, 15, 15, 15, 15, 15,  0,  0,  6,  6,  0,  0, 15, 15, 15,  0,  0,  0, 15, 15,  0, 15, 15, 15, 15,  6,  6,  6,  6,  6,  6,  6,  6,  6,  6,  6,  6,  6,  6,  6,  6,  6,  6,  6,  6,  6,  6,  6,  6,  6,  6,  6,  6,  6,  6,  6,  6,  6,  6,  6,  6,  6,  6,  6,  6,
        |  5, 20, 17, 15, 15,  5,  0, 15, 20, 15,  0,  0,  0, 15,  0,  0,  5, 17,  5,  0,  0, 15, 15, 20, 20, 15, 15, 17,  0,  0, 15, 15, 15,  0, 17, 15,  0,  0,  0,  5, 13, 13, 13, 13, 13, 13, 13, 13, 13, 13, 13, 13, 13, 13, 13, 13, 13, 13, 13, 13, 13, 13, 13, 13, 13, 13, 13, 13, 13, 13, 13, 13, 13, 13, 13, 13, 13, 13, 13, 13,
        |  5, 20, 17, 15, 15,  5,  0, 15, 20, 15,  0,  0,  0, 15,  0,  0,  5, 17,  5,  0,  0, 15, 15, 20, 20, 15, 15, 17,  0,  0, 15, 15, 15,  0, 17, 15,  0,  0,  0,  5, 13, 13, 13, 13, 13, 13, 13, 13, 13, 13, 13, 13, 13, 13, 13, 13, 13, 13, 13, 13, 13, 13, 13, 13, 13, 13, 13, 13, 13, 13, 13, 13, 13, 13, 13, 13, 13, 13, 13, 13,
        |  0, 20, 13, 15, 15,  0,  5, 15, 20, 15,  5,  5,  5, 15,  5,  5,  0, 13,  0,  5,  5, 15, 15, 20, 20, 15, 15, 13,  5,  5, 15, 15, 15,  5, 13, 15,  5,  5,  5,  0, 11, 11, 11, 11, 11, 11, 11, 11, 11, 11, 11, 11, 11, 11, 11, 11, 11, 11, 11, 11, 11, 11, 11, 11, 11, 11, 11, 11, 11, 11, 11, 11, 11, 11, 11, 11, 11, 11, 11, 11,
        | 13, 17,  0, 15, 15, 13, 17, 15, 17, 15, 17, 17, 17, 15, 17, 17, 13,  0, 13, 17, 17, 15, 15, 17, 17, 15, 15,  0, 17, 17, 15, 15, 15, 17,  0, 15, 17, 17, 17, 13, 10, 10, 10, 10, 10, 10, 10, 10, 10, 10, 10, 10, 10, 10, 10, 10, 10, 10, 10, 10, 10, 10, 10, 10, 10, 10, 10, 10, 10, 10, 10, 10, 10, 10, 10, 10, 10, 10, 10, 10,
        |  0, 20, 13, 15, 15,  0,  5, 15, 20, 15,  5,  5,  5, 15,  5,  5,  0, 13,  0,  5,  5, 15, 15, 20, 20, 15, 15, 13,  5,  5, 15, 15, 15,  5, 13, 15,  5,  5,  5,  0, 11, 11, 11, 11, 11, 11, 11, 11, 11, 11, 11, 11, 11, 11, 11, 11, 11, 11, 11, 11, 11, 11, 11, 11, 11, 11, 11, 11, 11, 11, 11, 11, 11, 11, 11, 11, 11, 11, 11, 11,
        |  5, 20, 17, 15, 15,  5,  0, 15, 20, 15,  0,  0,  0, 15,  0,  0,  5, 17,  5,  0,  0, 15, 15, 20, 20, 15, 15, 17,  0,  0, 15, 15, 15,  0, 17, 15,  0,  0,  0,  5, 13, 13, 13, 13, 13, 13, 13, 13, 13, 13, 13, 13, 13, 13, 13, 13, 13, 13, 13, 13, 13, 13, 13, 13, 13, 13, 13, 13, 13, 13, 13, 13, 13, 13, 13, 13, 13, 13, 13, 13,
        |  5, 20, 17, 15, 15,  5,  0, 15, 20, 15,  0,  0,  0, 15,  0,  0,  5, 17,  5,  0,  0, 15, 15, 20, 20, 15, 15, 17,  0,  0, 15, 15, 15,  0, 17, 15,  0,  0,  0,  5, 13, 13, 13, 13, 13, 13, 13, 13, 13, 13, 13, 13, 13, 13, 13, 13, 13, 13, 13, 13, 13, 13, 13, 13, 13, 13, 13, 13, 13, 13, 13, 13, 13, 13, 13, 13, 13, 13, 13, 13,
        | 15,  6, 15,  0,  0, 15, 15,  0,  6,  0, 15, 15, 15,  0, 15, 15, 15, 15, 15, 15, 15,  0,  0,  6,  6,  0,  0, 15, 15, 15,  0,  0,  0, 15, 15,  0, 15, 15, 15, 15,  6,  6,  6,  6,  6,  6,  6,  6,  6,  6,  6,  6,  6,  6,  6,  6,  6,  6,  6,  6,  6,  6,  6,  6,  6,  6,  6,  6,  6,  6,  6,  6,  6,  6,  6,  6,  6,  6,  6,  6,
        | 15,  6, 15,  0,  0, 15, 15,  0,  6,  0, 15, 15, 15,  0, 15, 15, 15, 15, 15, 15, 15,  0,  0,  6,  6,  0,  0, 15, 15, 15,  0,  0,  0, 15, 15,  0, 15, 15, 15, 15,  6,  6,  6,  6,  6,  6,  6,  6,  6,  6,  6,  6,  6,  6,  6,  6,  6,  6,  6,  6,  6,  6,  6,  6,  6,  6,  6,  6,  6,  6,  6,  6,  6,  6,  6,  6,  6,  6,  6,  6,
        | 20,  0, 17,  6,  6, 20, 20,  6,  0,  6, 20, 20, 20,  6, 20, 20, 20, 17, 20, 20, 20,  6,  6,  0,  0,  6,  6, 17, 20, 20,  6,  6,  6, 20, 17,  6, 20, 20, 20, 20, 10, 10, 10, 10, 10, 10, 10, 10, 10, 10, 10, 10, 10, 10, 10, 10, 10, 10, 10, 10, 10, 10, 10, 10, 10, 10, 10, 10, 10, 10, 10, 10, 10, 10, 10, 10, 10, 10, 10, 10,
        | 20,  0, 17,  6,  6, 20, 20,  6,  0,  6, 20, 20, 20,  6, 20, 20, 20, 17, 20, 20, 20,  6,  6,  0,  0,  6,  6, 17, 20, 20,  6,  6,  6, 20, 17,  6, 20, 20, 20, 20, 10, 10, 10, 10, 10, 10, 10, 10, 10, 10, 10, 10, 10, 10, 10, 10, 10, 10, 10, 10, 10, 10, 10, 10, 10, 10, 10, 10, 10, 10, 10, 10, 10, 10, 10, 10, 10, 10, 10, 10,
        | 15,  6, 15,  0,  0, 15, 15,  0,  6,  0, 15, 15, 15,  0, 15, 15, 15, 15, 15, 15, 15,  0,  0,  6,  6,  0,  0, 15, 15, 15,  0,  0,  0, 15, 15,  0, 15, 15, 15, 15,  6,  6,  6,  6,  6,  6,  6,  6,  6,  6,  6,  6,  6,  6,  6,  6,  6,  6,  6,  6,  6,  6,  6,  6,  6,  6,  6,  6,  6,  6,  6,  6,  6,  6,  6,  6,  6,  6,  6,  6,
        | 15,  6, 15,  0,  0, 15, 15,  0,  6,  0, 15, 15, 15,  0, 15, 15, 15, 15, 15, 15, 15,  0,  0,  6,  6,  0,  0, 15, 15, 15,  0,  0,  0, 15, 15,  0, 15, 15, 15, 15,  6,  6,  6,  6,  6,  6,  6,  6,  6,  6,  6,  6,  6,  6,  6,  6,  6,  6,  6,  6,  6,  6,  6,  6,  6,  6,  6,  6,  6,  6,  6,  6,  6,  6,  6,  6,  6,  6,  6,  6,
        | 13, 17,  0, 15, 15, 13, 17, 15, 17, 15, 17, 17, 17, 15, 17, 17, 13,  0, 13, 17, 17, 15, 15, 17, 17, 15, 15,  0, 17, 17, 15, 15, 15, 17,  0, 15, 17, 17, 17, 13, 10, 10, 10, 10, 10, 10, 10, 10, 10, 10, 10, 10, 10, 10, 10, 10, 10, 10, 10, 10, 10, 10, 10, 10, 10, 10, 10, 10, 10, 10, 10, 10, 10, 10, 10, 10, 10, 10, 10, 10,
        |  5, 20, 17, 15, 15,  5,  0, 15, 20, 15,  0,  0,  0, 15,  0,  0,  5, 17,  5,  0,  0, 15, 15, 20, 20, 15, 15, 17,  0,  0, 15, 15, 15,  0, 17, 15,  0,  0,  0,  5, 13, 13, 13, 13, 13, 13, 13, 13, 13, 13, 13, 13, 13, 13, 13, 13, 13, 13, 13, 13, 13, 13, 13, 13, 13, 13, 13, 13, 13, 13, 13, 13, 13, 13, 13, 13, 13, 13, 13, 13,
        |  5, 20, 17, 15, 15,  5,  0, 15, 20, 15,  0,  0,  0, 15,  0,  0,  5, 17,  5,  0,  0, 15, 15, 20, 20, 15, 15, 17,  0,  0, 15, 15, 15,  0, 17, 15,  0,  0,  0,  5, 13, 13, 13, 13, 13, 13, 13, 13, 13, 13, 13, 13, 13, 13, 13, 13, 13, 13, 13, 13, 13, 13, 13, 13, 13, 13, 13, 13, 13, 13, 13, 13, 13, 13, 13, 13, 13, 13, 13, 13,
        | 15,  6, 15,  0,  0, 15, 15,  0,  6,  0, 15, 15, 15,  0, 15, 15, 15, 15, 15, 15, 15,  0,  0,  6,  6,  0,  0, 15, 15, 15,  0,  0,  0, 15, 15,  0, 15, 15, 15, 15,  6,  6,  6,  6,  6,  6,  6,  6,  6,  6,  6,  6,  6,  6,  6,  6,  6,  6,  6,  6,  6,  6,  6,  6,  6,  6,  6,  6,  6,  6,  6,  6,  6,  6,  6,  6,  6,  6,  6,  6,
        | 15,  6, 15,  0,  0, 15, 15,  0,  6,  0, 15, 15, 15,  0, 15, 15, 15, 15, 15, 15, 15,  0,  0,  6,  6,  0,  0, 15, 15, 15,  0,  0,  0, 15, 15,  0, 15, 15, 15, 15,  6,  6,  6,  6,  6,  6,  6,  6,  6,  6,  6,  6,  6,  6,  6,  6,  6,  6,  6,  6,  6,  6,  6,  6,  6,  6,  6,  6,  6,  6,  6,  6,  6,  6,  6,  6,  6,  6,  6,  6,
        | 15,  6, 15,  0,  0, 15, 15,  0,  6,  0, 15, 15, 15,  0, 15, 15, 15, 15, 15, 15, 15,  0,  0,  6,  6,  0,  0, 15, 15, 15,  0,  0,  0, 15, 15,  0, 15, 15, 15, 15,  6,  6,  6,  6,  6,  6,  6,  6,  6,  6,  6,  6,  6,  6,  6,  6,  6,  6,  6,  6,  6,  6,  6,  6,  6,  6,  6,  6,  6,  6,  6,  6,  6,  6,  6,  6,  6,  6,  6,  6,
        |  5, 20, 17, 15, 15,  5,  0, 15, 20, 15,  0,  0,  0, 15,  0,  0,  5, 17,  5,  0,  0, 15, 15, 20, 20, 15, 15, 17,  0,  0, 15, 15, 15,  0, 17, 15,  0,  0,  0,  5, 13, 13, 13, 13, 13, 13, 13, 13, 13, 13, 13, 13, 13, 13, 13, 13, 13, 13, 13, 13, 13, 13, 13, 13, 13, 13, 13, 13, 13, 13, 13, 13, 13, 13, 13, 13, 13, 13, 13, 13,
        | 13, 17,  0, 15, 15, 13, 17, 15, 17, 15, 17, 17, 17, 15, 17, 17, 13,  0, 13, 17, 17, 15, 15, 17, 17, 15, 15,  0, 17, 17, 15, 15, 15, 17,  0, 15, 17, 17, 17, 13, 10, 10, 10, 10, 10, 10, 10, 10, 10, 10, 10, 10, 10, 10, 10, 10, 10, 10, 10, 10, 10, 10, 10, 10, 10, 10, 10, 10, 10, 10, 10, 10, 10, 10, 10, 10, 10, 10, 10, 10,
        | 15,  6, 15,  0,  0, 15, 15,  0,  6,  0, 15, 15, 15,  0, 15, 15, 15, 15, 15, 15, 15,  0,  0,  6,  6,  0,  0, 15, 15, 15,  0,  0,  0, 15, 15,  0, 15, 15, 15, 15,  6,  6,  6,  6,  6,  6,  6,  6,  6,  6,  6,  6,  6,  6,  6,  6,  6,  6,  6,  6,  6,  6,  6,  6,  6,  6,  6,  6,  6,  6,  6,  6,  6,  6,  6,  6,  6,  6,  6,  6,
        |  5, 20, 17, 15, 15,  5,  0, 15, 20, 15,  0,  0,  0, 15,  0,  0,  5, 17,  5,  0,  0, 15, 15, 20, 20, 15, 15, 17,  0,  0, 15, 15, 15,  0, 17, 15,  0,  0,  0,  5, 13, 13, 13, 13, 13, 13, 13, 13, 13, 13, 13, 13, 13, 13, 13, 13, 13, 13, 13, 13, 13, 13, 13, 13, 13, 13, 13, 13, 13, 13, 13, 13, 13, 13, 13, 13, 13, 13, 13, 13,
        |  5, 20, 17, 15, 15,  5,  0, 15, 20, 15,  0,  0,  0, 15,  0,  0,  5, 17,  5,  0,  0, 15, 15, 20, 20, 15, 15, 17,  0,  0, 15, 15, 15,  0, 17, 15,  0,  0,  0,  5, 13, 13, 13, 13, 13, 13, 13, 13, 13, 13, 13, 13, 13, 13, 13, 13, 13, 13, 13, 13, 13, 13, 13, 13, 13, 13, 13, 13, 13, 13, 13, 13, 13, 13, 13, 13, 13, 13, 13, 13,
        |  5, 20, 17, 15, 15,  5,  0, 15, 20, 15,  0,  0,  0, 15,  0,  0,  5, 17,  5,  0,  0, 15, 15, 20, 20, 15, 15, 17,  0,  0, 15, 15, 15,  0, 17, 15,  0,  0,  0,  5, 13, 13, 13, 13, 13, 13, 13, 13, 13, 13, 13, 13, 13, 13, 13, 13, 13, 13, 13, 13, 13, 13, 13, 13, 13, 13, 13, 13, 13, 13, 13, 13, 13, 13, 13, 13, 13, 13, 13, 13,
        |  0, 20, 13, 15, 15,  0,  5, 15, 20, 15,  5,  5,  5, 15,  5,  5,  0, 13,  0,  5,  5, 15, 15, 20, 20, 15, 15, 13,  5,  5, 15, 15, 15,  5, 13, 15,  5,  5,  5,  0, 11, 11, 11, 11, 11, 11, 11, 11, 11, 11, 11, 11, 11, 11, 11, 11, 11, 11, 11, 11, 11, 11, 11, 11, 11, 11, 11, 11, 11, 11, 11, 11, 11, 11, 11, 11, 11, 11, 11, 11,
        | 11, 10, 10,  6,  6, 11, 13,  6, 10,  6, 13, 13, 13,  6, 13, 13, 11, 10, 11, 13, 13,  6,  6, 10, 10,  6,  6, 10, 13, 13,  6,  6,  6, 13, 10,  6, 13, 13, 13, 11,  0,  0,  0,  0,  0,  0,  0,  0,  0,  0,  0,  0,  0,  0,  0,  0,  0,  0,  0,  0,  0,  0,  0,  0,  0,  0,  0,  0,  0,  0,  0,  0,  0,  0,  0,  0,  0,  0,  0,  0,
        | 11, 10, 10,  6,  6, 11, 13,  6, 10,  6, 13, 13, 13,  6, 13, 13, 11, 10, 11, 13, 13,  6,  6, 10, 10,  6,  6, 10, 13, 13,  6,  6,  6, 13, 10,  6, 13, 13, 13, 11,  0,  0,  0,  0,  0,  0,  0,  0,  0,  0,  0,  0,  0,  0,  0,  0,  0,  0,  0,  0,  0,  0,  0,  0,  0,  0,  0,  0,  0,  0,  0,  0,  0,  0,  0,  0,  0,  0,  0,  0,
        | 11, 10, 10,  6,  6, 11, 13,  6, 10,  6, 13, 13, 13,  6, 13, 13, 11, 10, 11, 13, 13,  6,  6, 10, 10,  6,  6, 10, 13, 13,  6,  6,  6, 13, 10,  6, 13, 13, 13, 11,  0,  0,  0,  0,  0,  0,  0,  0,  0,  0,  0,  0,  0,  0,  0,  0,  0,  0,  0,  0,  0,  0,  0,  0,  0,  0,  0,  0,  0,  0,  0,  0,  0,  0,  0,  0,  0,  0,  0,  0,
        | 11, 10, 10,  6,  6, 11, 13,  6, 10,  6, 13, 13, 13,  6, 13, 13, 11, 10, 11, 13, 13,  6,  6, 10, 10,  6,  6, 10, 13, 13,  6,  6,  6, 13, 10,  6, 13, 13, 13, 11,  0,  0,  0,  0,  0,  0,  0,  0,  0,  0,  0,  0,  0,  0,  0,  0,  0,  0,  0,  0,  0,  0,  0,  0,  0,  0,  0,  0,  0,  0,  0,  0,  0,  0,  0,  0,  0,  0,  0,  0,
        | 11, 10, 10,  6,  6, 11, 13,  6, 10,  6, 13, 13, 13,  6, 13, 13, 11, 10, 11, 13, 13,  6,  6, 10, 10,  6,  6, 10, 13, 13,  6,  6,  6, 13, 10,  6, 13, 13, 13, 11,  0,  0,  0,  0,  0,  0,  0,  0,  0,  0,  0,  0,  0,  0,  0,  0,  0,  0,  0,  0,  0,  0,  0,  0,  0,  0,  0,  0,  0,  0,  0,  0,  0,  0,  0,  0,  0,  0,  0,  0,
        | 11, 10, 10,  6,  6, 11, 13,  6, 10,  6, 13, 13, 13,  6, 13, 13, 11, 10, 11, 13, 13,  6,  6, 10, 10,  6,  6, 10, 13, 13,  6,  6,  6, 13, 10,  6, 13, 13, 13, 11,  0,  0,  0,  0,  0,  0,  0,  0,  0,  0,  0,  0,  0,  0,  0,  0,  0,  0,  0,  0,  0,  0,  0,  0,  0,  0,  0,  0,  0,  0,  0,  0,  0,  0,  0,  0,  0,  0,  0,  0,
        | 11, 10, 10,  6,  6, 11, 13,  6, 10,  6, 13, 13, 13,  6, 13, 13, 11, 10, 11, 13, 13,  6,  6, 10, 10,  6,  6, 10, 13, 13,  6,  6,  6, 13, 10,  6, 13, 13, 13, 11,  0,  0,  0,  0,  0,  0,  0,  0,  0,  0,  0,  0,  0,  0,  0,  0,  0,  0,  0,  0,  0,  0,  0,  0,  0,  0,  0,  0,  0,  0,  0,  0,  0,  0,  0,  0,  0,  0,  0,  0,
        | 11, 10, 10,  6,  6, 11, 13,  6, 10,  6, 13, 13, 13,  6, 13, 13, 11, 10, 11, 13, 13,  6,  6, 10, 10,  6,  6, 10, 13, 13,  6,  6,  6, 13, 10,  6, 13, 13, 13, 11,  0,  0,  0,  0,  0,  0,  0,  0,  0,  0,  0,  0,  0,  0,  0,  0,  0,  0,  0,  0,  0,  0,  0,  0,  0,  0,  0,  0,  0,  0,  0,  0,  0,  0,  0,  0,  0,  0,  0,  0,
        | 11, 10, 10,  6,  6, 11, 13,  6, 10,  6, 13, 13, 13,  6, 13, 13, 11, 10, 11, 13, 13,  6,  6, 10, 10,  6,  6, 10, 13, 13,  6,  6,  6, 13, 10,  6, 13, 13, 13, 11,  0,  0,  0,  0,  0,  0,  0,  0,  0,  0,  0,  0,  0,  0,  0,  0,  0,  0,  0,  0,  0,  0,  0,  0,  0,  0,  0,  0,  0,  0,  0,  0,  0,  0,  0,  0,  0,  0,  0,  0,
        | 11, 10, 10,  6,  6, 11, 13,  6, 10,  6, 13, 13, 13,  6, 13, 13, 11, 10, 11, 13, 13,  6,  6, 10, 10,  6,  6, 10, 13, 13,  6,  6,  6, 13, 10,  6, 13, 13, 13, 11,  0,  0,  0,  0,  0,  0,  0,  0,  0,  0,  0,  0,  0,  0,  0,  0,  0,  0,  0,  0,  0,  0,  0,  0,  0,  0,  0,  0,  0,  0,  0,  0,  0,  0,  0,  0,  0,  0,  0,  0,
        | 11, 10, 10,  6,  6, 11, 13,  6, 10,  6, 13, 13, 13,  6, 13, 13, 11, 10, 11, 13, 13,  6,  6, 10, 10,  6,  6, 10, 13, 13,  6,  6,  6, 13, 10,  6, 13, 13, 13, 11,  0,  0,  0,  0,  0,  0,  0,  0,  0,  0,  0,  0,  0,  0,  0,  0,  0,  0,  0,  0,  0,  0,  0,  0,  0,  0,  0,  0,  0,  0,  0,  0,  0,  0,  0,  0,  0,  0,  0,  0,
        | 11, 10, 10,  6,  6, 11, 13,  6, 10,  6, 13, 13, 13,  6, 13, 13, 11, 10, 11, 13, 13,  6,  6, 10, 10,  6,  6, 10, 13, 13,  6,  6,  6, 13, 10,  6, 13, 13, 13, 11,  0,  0,  0,  0,  0,  0,  0,  0,  0,  0,  0,  0,  0,  0,  0,  0,  0,  0,  0,  0,  0,  0,  0,  0,  0,  0,  0,  0,  0,  0,  0,  0,  0,  0,  0,  0,  0,  0,  0,  0,
        | 11, 10, 10,  6,  6, 11, 13,  6, 10,  6, 13, 13, 13,  6, 13, 13, 11, 10, 11, 13, 13,  6,  6, 10, 10,  6,  6, 10, 13, 13,  6,  6,  6, 13, 10,  6, 13, 13, 13, 11,  0,  0,  0,  0,  0,  0,  0,  0,  0,  0,  0,  0,  0,  0,  0,  0,  0,  0,  0,  0,  0,  0,  0,  0,  0,  0,  0,  0,  0,  0,  0,  0,  0,  0,  0,  0,  0,  0,  0,  0,
        | 11, 10, 10,  6,  6, 11, 13,  6, 10,  6, 13, 13, 13,  6, 13, 13, 11, 10, 11, 13, 13,  6,  6, 10, 10,  6,  6, 10, 13, 13,  6,  6,  6, 13, 10,  6, 13, 13, 13, 11,  0,  0,  0,  0,  0,  0,  0,  0,  0,  0,  0,  0,  0,  0,  0,  0,  0,  0,  0,  0,  0,  0,  0,  0,  0,  0,  0,  0,  0,  0,  0,  0,  0,  0,  0,  0,  0,  0,  0,  0,
        | 11, 10, 10,  6,  6, 11, 13,  6, 10,  6, 13, 13, 13,  6, 13, 13, 11, 10, 11, 13, 13,  6,  6, 10, 10,  6,  6, 10, 13, 13,  6,  6,  6, 13, 10,  6, 13, 13, 13, 11,  0,  0,  0,  0,  0,  0,  0,  0,  0,  0,  0,  0,  0,  0,  0,  0,  0,  0,  0,  0,  0,  0,  0,  0,  0,  0,  0,  0,  0,  0,  0,  0,  0,  0,  0,  0,  0,  0,  0,  0,
        | 11, 10, 10,  6,  6, 11, 13,  6, 10,  6, 13, 13, 13,  6, 13, 13, 11, 10, 11, 13, 13,  6,  6, 10, 10,  6,  6, 10, 13, 13,  6,  6,  6, 13, 10,  6, 13, 13, 13, 11,  0,  0,  0,  0,  0,  0,  0,  0,  0,  0,  0,  0,  0,  0,  0,  0,  0,  0,  0,  0,  0,  0,  0,  0,  0,  0,  0,  0,  0,  0,  0,  0,  0,  0,  0,  0,  0,  0,  0,  0,
        | 11, 10, 10,  6,  6, 11, 13,  6, 10,  6, 13, 13, 13,  6, 13, 13, 11, 10, 11, 13, 13,  6,  6, 10, 10,  6,  6, 10, 13, 13,  6,  6,  6, 13, 10,  6, 13, 13, 13, 11,  0,  0,  0,  0,  0,  0,  0,  0,  0,  0,  0,  0,  0,  0,  0,  0,  0,  0,  0,  0,  0,  0,  0,  0,  0,  0,  0,  0,  0,  0,  0,  0,  0,  0,  0,  0,  0,  0,  0,  0,
        | 11, 10, 10,  6,  6, 11, 13,  6, 10,  6, 13, 13, 13,  6, 13, 13, 11, 10, 11, 13, 13,  6,  6, 10, 10,  6,  6, 10, 13, 13,  6,  6,  6, 13, 10,  6, 13, 13, 13, 11,  0,  0,  0,  0,  0,  0,  0,  0,  0,  0,  0,  0,  0,  0,  0,  0,  0,  0,  0,  0,  0,  0,  0,  0,  0,  0,  0,  0,  0,  0,  0,  0,  0,  0,  0,  0,  0,  0,  0,  0,
        | 11, 10, 10,  6,  6, 11, 13,  6, 10,  6, 13, 13, 13,  6, 13, 13, 11, 10, 11, 13, 13,  6,  6, 10, 10,  6,  6, 10, 13, 13,  6,  6,  6, 13, 10,  6, 13, 13, 13, 11,  0,  0,  0,  0,  0,  0,  0,  0,  0,  0,  0,  0,  0,  0,  0,  0,  0,  0,  0,  0,  0,  0,  0,  0,  0,  0,  0,  0,  0,  0,  0,  0,  0,  0,  0,  0,  0,  0,  0,  0,
        | 11, 10, 10,  6,  6, 11, 13,  6, 10,  6, 13, 13, 13,  6, 13, 13, 11, 10, 11, 13, 13,  6,  6, 10, 10,  6,  6, 10, 13, 13,  6,  6,  6, 13, 10,  6, 13, 13, 13, 11,  0,  0,  0,  0,  0,  0,  0,  0,  0,  0,  0,  0,  0,  0,  0,  0,  0,  0,  0,  0,  0,  0,  0,  0,  0,  0,  0,  0,  0,  0,  0,  0,  0,  0,  0,  0,  0,  0,  0,  0,
        | 11, 10, 10,  6,  6, 11, 13,  6, 10,  6, 13, 13, 13,  6, 13, 13, 11, 10, 11, 13, 13,  6,  6, 10, 10,  6,  6, 10, 13, 13,  6,  6,  6, 13, 10,  6, 13, 13, 13, 11,  0,  0,  0,  0,  0,  0,  0,  0,  0,  0,  0,  0,  0,  0,  0,  0,  0,  0,  0,  0,  0,  0,  0,  0,  0,  0,  0,  0,  0,  0,  0,  0,  0,  0,  0,  0,  0,  0,  0,  0,
        | 11, 10, 10,  6,  6, 11, 13,  6, 10,  6, 13, 13, 13,  6, 13, 13, 11, 10, 11, 13, 13,  6,  6, 10, 10,  6,  6, 10, 13, 13,  6,  6,  6, 13, 10,  6, 13, 13, 13, 11,  0,  0,  0,  0,  0,  0,  0,  0,  0,  0,  0,  0,  0,  0,  0,  0,  0,  0,  0,  0,  0,  0,  0,  0,  0,  0,  0,  0,  0,  0,  0,  0,  0,  0,  0,  0,  0,  0,  0,  0,
        | 11, 10, 10,  6,  6, 11, 13,  6, 10,  6, 13, 13, 13,  6, 13, 13, 11, 10, 11, 13, 13,  6,  6, 10, 10,  6,  6, 10, 13, 13,  6,  6,  6, 13, 10,  6, 13, 13, 13, 11,  0,  0,  0,  0,  0,  0,  0,  0,  0,  0,  0,  0,  0,  0,  0,  0,  0,  0,  0,  0,  0,  0,  0,  0,  0,  0,  0,  0,  0,  0,  0,  0,  0,  0,  0,  0,  0,  0,  0,  0,
        | 11, 10, 10,  6,  6, 11, 13,  6, 10,  6, 13, 13, 13,  6, 13, 13, 11, 10, 11, 13, 13,  6,  6, 10, 10,  6,  6, 10, 13, 13,  6,  6,  6, 13, 10,  6, 13, 13, 13, 11,  0,  0,  0,  0,  0,  0,  0,  0,  0,  0,  0,  0,  0,  0,  0,  0,  0,  0,  0,  0,  0,  0,  0,  0,  0,  0,  0,  0,  0,  0,  0,  0,  0,  0,  0,  0,  0,  0,  0,  0,
        | 11, 10, 10,  6,  6, 11, 13,  6, 10,  6, 13, 13, 13,  6, 13, 13, 11, 10, 11, 13, 13,  6,  6, 10, 10,  6,  6, 10, 13, 13,  6,  6,  6, 13, 10,  6, 13, 13, 13, 11,  0,  0,  0,  0,  0,  0,  0,  0,  0,  0,  0,  0,  0,  0,  0,  0,  0,  0,  0,  0,  0,  0,  0,  0,  0,  0,  0,  0,  0,  0,  0,  0,  0,  0,  0,  0,  0,  0,  0,  0,
        | 11, 10, 10,  6,  6, 11, 13,  6, 10,  6, 13, 13, 13,  6, 13, 13, 11, 10, 11, 13, 13,  6,  6, 10, 10,  6,  6, 10, 13, 13,  6,  6,  6, 13, 10,  6, 13, 13, 13, 11,  0,  0,  0,  0,  0,  0,  0,  0,  0,  0,  0,  0,  0,  0,  0,  0,  0,  0,  0,  0,  0,  0,  0,  0,  0,  0,  0,  0,  0,  0,  0,  0,  0,  0,  0,  0,  0,  0,  0,  0,
        | 11, 10, 10,  6,  6, 11, 13,  6, 10,  6, 13, 13, 13,  6, 13, 13, 11, 10, 11, 13, 13,  6,  6, 10, 10,  6,  6, 10, 13, 13,  6,  6,  6, 13, 10,  6, 13, 13, 13, 11,  0,  0,  0,  0,  0,  0,  0,  0,  0,  0,  0,  0,  0,  0,  0,  0,  0,  0,  0,  0,  0,  0,  0,  0,  0,  0,  0,  0,  0,  0,  0,  0,  0,  0,  0,  0,  0,  0,  0,  0,
        | 11, 10, 10,  6,  6, 11, 13,  6, 10,  6, 13, 13, 13,  6, 13, 13, 11, 10, 11, 13, 13,  6,  6, 10, 10,  6,  6, 10, 13, 13,  6,  6,  6, 13, 10,  6, 13, 13, 13, 11,  0,  0,  0,  0,  0,  0,  0,  0,  0,  0,  0,  0,  0,  0,  0,  0,  0,  0,  0,  0,  0,  0,  0,  0,  0,  0,  0,  0,  0,  0,  0,  0,  0,  0,  0,  0,  0,  0,  0,  0,
        | 11, 10, 10,  6,  6, 11, 13,  6, 10,  6, 13, 13, 13,  6, 13, 13, 11, 10, 11, 13, 13,  6,  6, 10, 10,  6,  6, 10, 13, 13,  6,  6,  6, 13, 10,  6, 13, 13, 13, 11,  0,  0,  0,  0,  0,  0,  0,  0,  0,  0,  0,  0,  0,  0,  0,  0,  0,  0,  0,  0,  0,  0,  0,  0,  0,  0,  0,  0,  0,  0,  0,  0,  0,  0,  0,  0,  0,  0,  0,  0,
        | 11, 10, 10,  6,  6, 11, 13,  6, 10,  6, 13, 13, 13,  6, 13, 13, 11, 10, 11, 13, 13,  6,  6, 10, 10,  6,  6, 10, 13, 13,  6,  6,  6, 13, 10,  6, 13, 13, 13, 11,  0,  0,  0,  0,  0,  0,  0,  0,  0,  0,  0,  0,  0,  0,  0,  0,  0,  0,  0,  0,  0,  0,  0,  0,  0,  0,  0,  0,  0,  0,  0,  0,  0,  0,  0,  0,  0,  0,  0,  0,
        | 11, 10, 10,  6,  6, 11, 13,  6, 10,  6, 13, 13, 13,  6, 13, 13, 11, 10, 11, 13, 13,  6,  6, 10, 10,  6,  6, 10, 13, 13,  6,  6,  6, 13, 10,  6, 13, 13, 13, 11,  0,  0,  0,  0,  0,  0,  0,  0,  0,  0,  0,  0,  0,  0,  0,  0,  0,  0,  0,  0,  0,  0,  0,  0,  0,  0,  0,  0,  0,  0,  0,  0,  0,  0,  0,  0,  0,  0,  0,  0,
        | 11, 10, 10,  6,  6, 11, 13,  6, 10,  6, 13, 13, 13,  6, 13, 13, 11, 10, 11, 13, 13,  6,  6, 10, 10,  6,  6, 10, 13, 13,  6,  6,  6, 13, 10,  6, 13, 13, 13, 11,  0,  0,  0,  0,  0,  0,  0,  0,  0,  0,  0,  0,  0,  0,  0,  0,  0,  0,  0,  0,  0,  0,  0,  0,  0,  0,  0,  0,  0,  0,  0,  0,  0,  0,  0,  0,  0,  0,  0,  0,
        | 11, 10, 10,  6,  6, 11, 13,  6, 10,  6, 13, 13, 13,  6, 13, 13, 11, 10, 11, 13, 13,  6,  6, 10, 10,  6,  6, 10, 13, 13,  6,  6,  6, 13, 10,  6, 13, 13, 13, 11,  0,  0,  0,  0,  0,  0,  0,  0,  0,  0,  0,  0,  0,  0,  0,  0,  0,  0,  0,  0,  0,  0,  0,  0,  0,  0,  0,  0,  0,  0,  0,  0,  0,  0,  0,  0,  0,  0,  0,  0,
        | 11, 10, 10,  6,  6, 11, 13,  6, 10,  6, 13, 13, 13,  6, 13, 13, 11, 10, 11, 13, 13,  6,  6, 10, 10,  6,  6, 10, 13, 13,  6,  6,  6, 13, 10,  6, 13, 13, 13, 11,  0,  0,  0,  0,  0,  0,  0,  0,  0,  0,  0,  0,  0,  0,  0,  0,  0,  0,  0,  0,  0,  0,  0,  0,  0,  0,  0,  0,  0,  0,  0,  0,  0,  0,  0,  0,  0,  0,  0,  0,
        | 11, 10, 10,  6,  6, 11, 13,  6, 10,  6, 13, 13, 13,  6, 13, 13, 11, 10, 11, 13, 13,  6,  6, 10, 10,  6,  6, 10, 13, 13,  6,  6,  6, 13, 10,  6, 13, 13, 13, 11,  0,  0,  0,  0,  0,  0,  0,  0,  0,  0,  0,  0,  0,  0,  0,  0,  0,  0,  0,  0,  0,  0,  0,  0,  0,  0,  0,  0,  0,  0,  0,  0,  0,  0,  0,  0,  0,  0,  0,  0,
        | 11, 10, 10,  6,  6, 11, 13,  6, 10,  6, 13, 13, 13,  6, 13, 13, 11, 10, 11, 13, 13,  6,  6, 10, 10,  6,  6, 10, 13, 13,  6,  6,  6, 13, 10,  6, 13, 13, 13, 11,  0,  0,  0,  0,  0,  0,  0,  0,  0,  0,  0,  0,  0,  0,  0,  0,  0,  0,  0,  0,  0,  0,  0,  0,  0,  0,  0,  0,  0,  0,  0,  0,  0,  0,  0,  0,  0,  0,  0,  0,
        | 11, 10, 10,  6,  6, 11, 13,  6, 10,  6, 13, 13, 13,  6, 13, 13, 11, 10, 11, 13, 13,  6,  6, 10, 10,  6,  6, 10, 13, 13,  6,  6,  6, 13, 10,  6, 13, 13, 13, 11,  0,  0,  0,  0,  0,  0,  0,  0,  0,  0,  0,  0,  0,  0,  0,  0,  0,  0,  0,  0,  0,  0,  0,  0,  0,  0,  0,  0,  0,  0,  0,  0,  0,  0,  0,  0,  0,  0,  0,  0,
        | 11, 10, 10,  6,  6, 11, 13,  6, 10,  6, 13, 13, 13,  6, 13, 13, 11, 10, 11, 13, 13,  6,  6, 10, 10,  6,  6, 10, 13, 13,  6,  6,  6, 13, 10,  6, 13, 13, 13, 11,  0,  0,  0,  0,  0,  0,  0,  0,  0,  0,  0,  0,  0,  0,  0,  0,  0,  0,  0,  0,  0,  0,  0,  0,  0,  0,  0,  0,  0,  0,  0,  0,  0,  0,  0,  0,  0,  0,  0,  0,
        | 11, 10, 10,  6,  6, 11, 13,  6, 10,  6, 13, 13, 13,  6, 13, 13, 11, 10, 11, 13, 13,  6,  6, 10, 10,  6,  6, 10, 13, 13,  6,  6,  6, 13, 10,  6, 13, 13, 13, 11,  0,  0,  0,  0,  0,  0,  0,  0,  0,  0,  0,  0,  0,  0,  0,  0,  0,  0,  0,  0,  0,  0,  0,  0,  0,  0,  0,  0,  0,  0,  0,  0,  0,  0,  0,  0,  0,  0,  0,  0,
        | 11, 10, 10,  6,  6, 11, 13,  6, 10,  6, 13, 13, 13,  6, 13, 13, 11, 10, 11, 13, 13,  6,  6, 10, 10,  6,  6, 10, 13, 13,  6,  6,  6, 13, 10,  6, 13, 13, 13, 11,  0,  0,  0,  0,  0,  0,  0,  0,  0,  0,  0,  0,  0,  0,  0,  0,  0,  0,  0,  0,  0,  0,  0,  0,  0,  0,  0,  0,  0,  0,  0,  0,  0,  0,  0,  0,  0,  0,  0,  0|];
l =     [  1,  5,  3,  2,  2,  1,  4,  2,  5,  2,  4,  4,  4,  2,  4,  4,  1,  3,  1,  4,  4,  2,  2,  5,  5,  2,  2,  3,  4,  4,  2,  2,  2,  4,  3,  2,  4,  4,  4,  1];
a =     [ 11, 40, 13,  7, 45, 13, 36, 15, 15, 24, 19, 53, 49, 34, 48, 42, 29, 10, 11, 13, 34, 57, 46, 31, 64, 47, 69, 47, 46, 50, 48, 83, 79, 59, 82, 68, 45, 42, 28, 31];
b =     [ 34, 74, 30, 34, 63, 38, 72, 46, 42, 47, 48, 68, 88, 59, 81, 71, 49, 40, 34, 34,103,124,115, 89,119,111,123,116,109, 91,108,126,122,108,123,128, 96,102, 97, 83];
s =     [ 18, 11, 18, 18, 13, 19, 18, 17, 11, 11, 14, 15, 15, 10, 17, 11, 11, 15, 12, 13, 18, 11, 18, 18, 13, 19, 18, 17, 11, 11, 14, 15, 15, 10, 17, 11, 11, 15, 12, 13];
q =     [  3,  2,  1,  4,  2,  1,  3,  4,  2,  1,  4,  4,  3,  4,  2,  4,  4,  1,  1,  4, -3, -2, -1, -4, -2, -1, -3, -4, -2, -1, -4, -4, -3, -4, -2, -4, -4, -1, -1, -4];
